InboundTrucks  = 50;
OutboundTrucks = 40;
ReleaseTime    = [20,3,0,8,7,7,4,3,17,2,18,13,1,0,2,6,7,16,19,0,17,6,20,17,13,7,14,18,8,0,5,13,10,8,4,6,10,3,2,12,3,11,11,19,8,1,14,17,3,12];
UnloadTime     = [2,9,5,10,6,10,4,2,1,4,5,2,4,2,7,5,8,6,3,6,6,4,5,2,10,3,9,4,3,8,7,5,9,4,6,1,4,1,6,7,5,2,4,10,6,4,8,7,8,3];
LoadTime       = [5,3,4,9,9,5,10,7,10,7,6,4,3,9,8,2,1,2,3,3,7,10,2,7,7,10,8,9,5,9,1,2,9,5,6,2,5,7,3,8];
TransferTime   = [| 1,3,5,2,5,1,3,5,5,2,2,3,2,5,5,1,5,3,4,1,1,3,3,2,1,2,5,1,1,4,1,5,2,2,4,5,2,3,5,5 | 4,2,5,2,3,4,3,4,5,4,1,2,2,1,3,1,5,5,2,5,2,1,1,1,2,1,1,3,1,5,2,3,4,2,5,2,5,5,4,2 | 4,4,2,1,1,4,3,4,4,4,1,1,1,4,3,1,2,2,2,5,4,2,4,2,3,4,2,1,4,5,1,1,5,1,1,2,2,4,4,4 | 2,4,1,2,4,1,4,3,4,3,4,5,4,2,2,3,2,1,5,5,1,3,1,1,5,4,5,5,2,1,5,1,2,1,5,1,2,4,1,5 | 2,5,5,1,5,1,4,5,5,5,3,3,2,3,2,3,4,2,3,4,3,1,1,4,5,5,1,1,5,2,5,3,2,3,1,2,3,3,2,4 | 5,3,5,5,1,5,3,1,2,3,1,1,5,2,3,3,5,2,3,2,3,5,4,3,1,1,4,3,1,1,3,2,3,2,4,5,4,5,1,1 | 1,2,5,1,3,5,5,2,4,2,1,3,3,1,3,2,2,1,3,5,4,5,2,2,2,2,4,1,2,3,4,2,3,2,1,4,1,4,2,2 | 4,3,3,2,2,1,2,4,3,3,1,3,3,5,4,5,3,1,1,3,2,5,3,1,1,5,4,3,3,4,5,5,1,4,5,2,3,1,4,1 | 5,5,2,3,4,1,3,5,3,1,3,5,3,4,3,4,3,5,2,2,4,4,2,5,5,3,4,5,1,3,3,2,4,5,5,3,4,4,4,2 | 5,4,2,1,3,5,5,3,1,2,3,2,2,2,1,1,2,4,5,1,4,4,5,2,4,4,4,2,2,1,1,4,2,2,5,4,1,5,2,1 | 4,2,4,5,5,5,3,4,5,5,4,5,4,2,4,4,3,2,3,5,4,2,3,4,1,3,2,3,3,3,5,1,2,2,2,4,2,2,1,4 | 4,3,5,4,4,1,2,4,4,5,1,5,4,4,1,3,3,4,4,5,5,5,2,4,2,3,4,4,1,4,3,4,2,4,2,5,5,1,4,5 | 5,1,1,4,2,4,2,1,3,4,3,2,4,3,3,4,3,4,3,1,4,1,5,1,3,2,1,1,1,2,2,1,5,2,2,2,4,1,5,2 | 4,3,3,2,5,5,1,2,3,1,5,1,3,5,4,4,2,1,5,2,1,3,5,1,5,1,3,5,4,3,1,5,3,1,4,4,1,4,3,4 | 2,4,2,5,3,5,5,4,4,4,5,3,3,2,1,3,4,2,4,5,5,4,3,1,4,3,2,4,2,3,3,3,3,5,3,5,1,5,2,1 | 2,4,4,5,2,4,4,4,1,1,3,2,4,2,3,5,3,4,5,5,3,4,5,3,3,4,3,3,3,2,1,2,3,1,5,2,2,2,4,3 | 5,5,5,3,1,2,3,2,3,2,3,1,5,2,3,1,1,5,3,2,4,1,1,5,3,4,4,4,3,2,1,3,4,1,1,4,4,1,5,1 | 2,2,5,3,1,2,1,5,4,5,5,5,2,5,4,4,4,3,5,4,3,5,5,1,5,1,2,2,3,1,2,2,2,5,1,2,1,4,4,5 | 4,3,1,2,3,3,4,1,2,3,5,2,4,1,5,2,2,3,2,1,1,2,3,5,5,3,4,1,4,3,4,3,5,5,4,4,1,5,1,4 | 3,5,3,1,1,2,5,5,1,3,5,1,2,4,5,4,3,2,5,4,4,1,4,3,4,3,3,1,2,3,4,4,3,4,5,1,4,1,3,3 | 3,1,4,5,1,5,4,4,1,2,5,3,5,4,4,1,2,3,5,2,3,4,4,1,1,5,2,2,3,5,1,5,4,1,2,1,4,1,2,4 | 3,5,3,4,4,4,2,4,5,2,4,2,5,5,2,1,3,4,3,5,3,1,3,3,5,5,4,2,4,5,4,3,3,5,5,4,4,3,2,2 | 5,4,2,4,1,3,4,4,4,2,4,1,2,5,5,3,1,4,1,5,4,1,2,4,2,1,4,3,3,5,4,1,3,5,4,3,4,5,1,5 | 1,2,3,2,1,4,1,1,4,2,3,1,1,3,1,3,3,3,4,2,2,5,4,5,2,2,2,1,5,4,5,2,4,5,2,2,4,3,4,3 | 1,4,3,5,2,1,4,3,5,3,4,3,4,3,2,4,4,1,2,4,5,3,5,3,3,1,4,3,1,5,1,5,4,3,2,5,3,2,2,5 | 3,2,1,1,3,4,1,5,3,2,1,3,3,4,2,2,2,5,3,5,5,3,2,3,4,3,3,1,4,1,2,2,4,5,3,1,4,1,3,5 | 1,4,3,3,5,4,3,1,2,4,1,5,5,3,5,2,1,4,3,4,1,2,1,1,3,4,1,1,2,5,2,4,4,3,5,4,5,2,4,1 | 4,5,4,3,1,3,2,4,4,2,3,1,3,5,3,1,4,3,2,1,4,1,2,5,1,1,3,2,2,5,2,1,5,2,5,2,2,3,2,5 | 1,3,2,2,5,3,2,1,1,2,1,3,2,5,3,1,2,3,1,2,4,5,1,1,4,4,3,5,5,1,4,5,2,5,1,5,3,4,1,1 | 4,4,4,1,4,4,1,1,3,5,2,1,2,3,5,5,5,3,4,5,5,3,4,5,5,4,1,1,5,2,4,4,2,4,3,4,4,4,1,3 | 4,3,3,3,2,4,1,1,1,1,4,1,3,2,5,1,5,5,5,3,1,4,3,4,1,3,5,3,3,1,5,5,2,2,4,2,1,3,5,3 | 1,3,5,2,4,5,5,5,5,1,5,3,1,2,3,3,3,3,1,2,2,5,4,1,2,1,1,5,2,4,4,4,3,2,3,3,3,5,5,1 | 1,2,2,5,1,1,3,4,4,4,5,4,4,3,2,5,1,3,4,1,3,5,4,5,3,1,2,4,5,1,1,2,3,2,2,3,3,3,1,1 | 4,4,2,2,4,5,2,5,5,3,1,4,1,4,1,4,1,3,5,4,5,4,4,3,1,4,1,3,2,5,4,3,1,4,1,2,4,5,4,5 | 1,4,3,3,2,3,2,1,5,1,5,5,2,3,3,2,2,1,2,3,2,2,5,2,1,2,4,4,5,5,4,5,5,3,3,2,4,1,4,4 | 3,3,5,1,3,5,1,3,4,4,1,1,3,3,1,1,5,5,5,4,4,5,5,1,4,5,2,3,5,4,5,2,1,4,1,3,1,5,2,1 | 2,4,4,5,5,5,2,3,3,3,4,4,3,5,1,3,1,3,1,5,4,3,3,5,2,3,1,5,2,3,3,4,2,5,1,3,5,4,3,2 | 5,1,4,5,3,1,3,3,2,2,3,4,2,2,2,2,1,3,1,5,5,5,1,3,5,2,5,4,2,2,2,5,2,4,1,4,3,2,4,5 | 3,4,2,5,2,3,4,2,3,5,4,4,3,4,5,5,4,2,2,5,2,3,1,4,3,5,1,5,1,3,1,2,3,4,5,2,4,1,2,4 | 3,1,4,1,4,5,3,2,4,1,3,2,1,3,1,3,2,2,1,3,4,2,4,4,5,1,1,1,3,2,2,5,5,5,4,1,3,2,3,1 | 1,2,4,5,4,1,1,4,5,5,1,5,5,2,2,3,4,1,5,3,2,5,4,2,1,5,3,1,5,5,5,5,5,1,4,4,1,4,3,3 | 1,3,1,3,2,1,5,3,2,1,3,5,3,2,4,4,2,2,1,4,1,3,2,1,2,1,3,3,5,4,5,4,3,1,2,3,3,1,3,3 | 1,3,4,4,4,4,3,2,4,4,3,5,3,1,4,1,4,5,2,5,3,3,1,1,3,3,3,4,5,4,2,4,3,4,1,3,5,4,3,1 | 1,4,3,5,2,1,2,5,4,1,2,1,2,3,3,4,5,1,5,2,4,3,3,4,1,5,2,5,3,4,3,3,2,1,1,2,4,5,4,5 | 1,3,3,4,2,5,3,4,2,1,2,1,4,2,4,1,3,3,1,5,5,3,3,2,2,3,5,2,1,2,2,2,4,1,3,5,5,3,4,5 | 2,5,1,1,3,4,4,5,4,4,5,1,2,3,1,4,4,5,3,2,5,5,2,2,4,5,1,1,5,2,3,2,2,3,2,3,5,3,1,3 | 2,5,3,2,3,5,5,1,5,2,5,5,2,2,5,5,3,5,1,1,1,1,5,3,2,5,4,5,1,4,5,3,3,4,2,4,3,4,1,1 | 2,4,4,4,4,2,3,5,2,3,3,3,4,2,3,5,5,1,3,2,4,1,3,4,2,2,1,1,3,4,5,4,2,2,3,5,3,2,2,4 | 5,4,4,3,4,1,1,4,5,4,2,2,5,3,1,1,3,4,5,4,3,5,1,1,4,2,3,3,4,3,1,4,1,5,5,2,3,5,3,1 | 4,5,4,5,3,5,5,1,2,1,4,3,3,5,3,2,2,5,5,4,5,1,1,1,2,3,4,5,4,2,5,5,2,3,5,3,2,4,5,3 |];
